(set-logic QF_SLIA)
(set-option :produce-models true)
(declare-const X String)
; /\u{2e}nab([\?\u{5c}\u{2f}]|$)/smiU
(assert (str.in_re X (re.++ (str.to_re "/.nab") (re.union (str.to_re "?") (str.to_re "\u{5c}") (str.to_re "/")) (str.to_re "/smiU\u{0a}"))))
; /\u{5f}\w{24}\.exe/Pi
(assert (str.in_re X (re.++ (str.to_re "/_") ((_ re.loop 24 24) (re.union (re.range "0" "9") (re.range "A" "Z") (re.range "a" "z") (str.to_re "_"))) (str.to_re ".exe/Pi\u{0a}"))))
; hirmvtg\u{2f}ggqh\.kqh\w+whenu\x2Ecom\w+weatherHost\x3AUser-Agent\x3A
(assert (str.in_re X (re.++ (str.to_re "hirmvtg/ggqh.kqh\u{1b}") (re.+ (re.union (re.range "0" "9") (re.range "A" "Z") (re.range "a" "z") (str.to_re "_"))) (str.to_re "whenu.com\u{13}") (re.+ (re.union (re.range "0" "9") (re.range "A" "Z") (re.range "a" "z") (str.to_re "_"))) (str.to_re "weatherHost:User-Agent:\u{0a}"))))
(check-sat)
